p cnf 24 59
a 4 14 0
e 1 2 3 5 6 7 8 9 10 11 12 13 15 16 17 18 19 20 21 22 23 24 0
1 2 0
-1 2 0
3 -1 -4 0
-3 1 -4 0
3 1 4 0
-3 -1 4 0
5 6 -7 0
-5 -6 -7 0
5 -6 7 0
-5 6 7 0
8 -5 0
8 6 0
5 -6 -8 0
9 -10 -11 0
-9 10 -11 0
9 10 11 0
-9 -10 11 0
-12 -8 0
-12 -11 0
8 11 12 0
-13 -12 0
-13 -11 0
12 11 13 0
14 -7 0
14 -13 0
7 13 -14 0
-4 -14 -15 0
4 14 -15 0
-4 14 15 0
4 -14 15 0
16 11 0
16 -3 0
-11 3 -16 0
-18 16 0
-18 -17 0
-16 17 18 0
19 15 0
19 18 0
-15 -18 -19 0
20 3 -21 0
-20 -3 -21 0
20 -3 21 0
-20 3 21 0
22 21 0
22 1 0
-21 -1 -22 0
19 22 -23 0
-19 -22 -23 0
19 -22 23 0
-19 22 23 0
-24 2 0
-24 23 0
-2 -23 24 0
-2 -6 -19 -21 -4 0
-2 -24 3 1 -5 -22 0
-5 -18 15 10 -8 -17 0
-16 2 9 -18 0
-24 21 -16 17 0
24 0
